
******************************************************************************
This program contains Ipopt, a library for large-scale nonlinear optimization.
 Ipopt is released as open source code under the Eclipse Public License (EPL).
         For more information visit http://projects.coin-or.org/Ipopt

This version of Ipopt was compiled from source code available at
    https://github.com/IDAES/Ipopt as part of the Institute for the Design of
    Advanced Energy Systems Process Systems Engineering Framework (IDAES PSE
    Framework) Copyright (c) 2018-2019. See https://github.com/IDAES/idaes-pse.

This version of Ipopt was compiled using HSL, a collection of Fortran codes
    for large-scale scientific computation.  All technical papers, sales and
    publicity material resulting from use of the HSL codes within IPOPT must
    contain the following acknowledgement:
        HSL, a collection of Fortran codes for large-scale scientific
        computation. See http://www.hsl.rl.ac.uk.
******************************************************************************

This is Ipopt version 3.13.2, running with linear solver ma27.

Number of nonzeros in equality constraint Jacobian...:      958
Number of nonzeros in inequality constraint Jacobian.:        0
Number of nonzeros in Lagrangian Hessian.............:      832

Total number of variables............................:      416
                     variables with only lower bounds:      128
                variables with lower and upper bounds:      224
                     variables with only upper bounds:        0
Total number of equality constraints.................:      415
Total number of inequality constraints...............:        0
        inequality constraints with only lower bounds:        0
   inequality constraints with lower and upper bounds:        0
        inequality constraints with only upper bounds:        0

iter    objective    inf_pr   inf_du lg(mu)  ||d||  lg(rg) alpha_du alpha_pr  ls
   0  0.0000000e+00 6.85e-01 8.88e-16  -1.0 0.00e+00    -  0.00e+00 0.00e+00   0
   1  8.9854080e-02 6.00e-01 4.04e+03  -1.0 1.86e+05    -  2.90e-01 1.12e-01h  2
   2  5.1228756e-01 4.81e-01 2.85e+03  -1.0 1.58e+05    -  6.06e-01 1.73e-01h  1
   3  5.2380371e-01 4.79e-01 2.83e+03  -1.0 1.65e+05    -  7.99e-01 4.04e-03h  1
   4  1.9835953e+01 3.43e-02 3.72e+04  -1.0 2.54e+05    -  7.77e-01 9.90e-01h  1
   5  2.6259607e+01 1.23e-03 1.94e+03  -1.0 5.24e+04    -  9.50e-01 9.90e-01h  1
   6  2.6481933e+01 1.38e-05 1.99e+01  -1.0 2.18e+03    -  9.90e-01 9.90e-01h  1
   7  2.6550174e+01 7.63e-07 1.52e+02  -1.0 7.45e+02    -  9.90e-01 9.90e-01h  1
   8  2.6481778e+01 9.07e-07 2.12e+05  -3.8 8.27e+02    -  1.00e+00 8.97e-01f  1
   9  2.6481944e+01 1.52e-10 3.04e+03  -3.8 1.92e+00    -  1.00e+00 1.00e+00h  1
iter    objective    inf_pr   inf_du lg(mu)  ||d||  lg(rg) alpha_du alpha_pr  ls
  10  2.6481944e+01 5.78e-13 2.00e+07  -3.8 2.94e-03    -  1.00e+00 1.00e+00h  1
In iteration 10, 32 Slacks too small, adjusting variable bounds
  11  2.6481944e+01 9.89e-13 1.33e+11  -3.8 4.29e-07    -  1.00e+00 1.00e+00h  1
  12  2.6481944e+01 7.74e-13 4.41e+14  -3.8 2.88e-08    -  1.00e+00 5.00e-01h  2
  13  2.6481944e+01 7.74e-13 4.41e+14  -3.8 5.71e-08    -  1.00e+00 9.77e-04h 11
  14  2.6481944e+01 4.37e-13 4.27e+14  -3.8 5.71e-08    -  1.00e+00 3.12e-02h  6
  15  2.6481944e+01 4.37e-13 4.27e+14  -3.8 4.26e-08    -  1.00e+00 9.77e-04h 11
  16  2.6481944e+01 3.58e-13 4.00e+14  -3.8 4.26e-08    -  1.00e+00 6.25e-02h  5
  17  2.6481944e+01 3.58e-13 4.00e+14  -3.8 2.73e-08    -  1.00e+00 4.88e-04h 12
  18  2.6481944e+01 3.58e-13 4.00e+14  -3.8 2.73e-08    -  1.00e+00 2.44e-04h 13
  19  2.6481944e+01 3.58e-13 4.00e+14  -3.8 2.73e-08    -  1.00e+00 1.22e-04h 14
iter    objective    inf_pr   inf_du lg(mu)  ||d||  lg(rg) alpha_du alpha_pr  ls
  20  2.6481944e+01 4.17e-13 3.55e-02  -3.8 2.73e-08    -  1.00e+00 1.00e+00s 22
  21  2.6481793e+01 4.03e-12 5.50e-06  -9.0 1.63e+00    -  1.00e+00 1.00e+00s 22

Number of Iterations....: 21

                                   (scaled)                 (unscaled)
Objective...............:   2.6481793333230492e+01    2.6481793333230492e+01
Dual infeasibility......:   5.4985284805297852e-06    5.4985284805297852e-06
Constraint violation....:   4.0338843376730438e-12    4.0338843376730438e-12
Complementarity.........:   3.4273993179165667e-08    3.4273993179165667e-08
Overall NLP error.......:   3.7546937005055199e-10    5.4985284805297852e-06


Number of objective function evaluations             = 121
Number of objective gradient evaluations             = 22
Number of equality constraint evaluations            = 121
Number of inequality constraint evaluations          = 0
Number of equality constraint Jacobian evaluations   = 22
Number of inequality constraint Jacobian evaluations = 0
Number of Lagrangian Hessian evaluations             = 21
Total CPU secs in IPOPT (w/o function evaluations)   =      0.049
Total CPU secs in NLP function evaluations           =      1.221

EXIT: Optimal Solution Found.
